NAME: random-65-20897
TYPE: TSP
COMMENT: size=65 seed=20897
DIMENSION: 132
EDGE_WEIGHT_TYPE: EUC_2D
NODE_COORD_SECTION
+0 879 397
-0 879 397
+1 159 959
-1 967 224
+2 766 769
-2 622 467
+3 816 540
-3 640 548
+4 144 393
-4 716 752
+5 363 496
-5 344 208
+6 66 784
-6 916 758
+7 581 651
-7 775 153
+8 116 322
-8 63 28
+9 823 171
-9 640 239
+10 585 580
-10 174 318
+11 787 119
-11 763 538
+12 412 236
-12 898 240
+13 780 400
-13 167 617
+14 826 386
-14 57 536
+15 746 81
-15 617 626
+16 298 807
-16 402 264
+17 681 874
-17 745 488
+18 465 549
-18 615 23
+19 550 30
-19 514 275
+20 349 825
-20 56 655
+21 228 630
-21 737 162
+22 952 810
-22 805 884
+23 240 79
-23 800 36
+24 935 794
-24 217 208
+25 881 243
-25 640 994
+26 725 711
-26 520 679
+27 22 736
-27 565 68
+28 182 364
-28 716 694
+29 688 988
-29 351 489
+30 273 143
-30 704 97
+31 348 345
-31 808 999
+32 722 69
-32 829 383
+33 327 258
-33 885 443
+34 794 610
-34 197 354
+35 73 52
-35 199 664
+36 996 603
-36 19 875
+37 99 806
-37 572 558
+38 664 565
-38 101 628
+39 624 697
-39 255 715
+40 518 997
-40 916 881
+41 462 544
-41 276 419
+42 349 620
-42 295 389
+43 489 303
-43 273 32
+44 14 142
-44 676 901
+45 657 852
-45 96 40
+46 360 139
-46 865 374
+47 609 857
-47 159 212
+48 33 407
-48 907 625
+49 314 233
-49 603 593
+50 9 537
-50 430 444
+51 888 940
-51 117 351
+52 926 912
-52 44 560
+53 860 267
-53 59 29
+54 172 861
-54 764 119
+55 290 6
-55 261 858
+56 523 384
-56 34 863
+57 742 359
-57 366 414
+58 516 172
-58 965 655
+59 638 415
-59 862 955
+60 220 499
-60 745 50
+61 201 554
-61 306 653
+62 128 194
-62 304 640
+63 256 556
-63 104 890
+64 577 720
-64 324 292
+65 185 76
-65 248 384
PRECEDENCE_SECTION
+0 -0
+1 -1
+2 -2
+3 -3
+4 -4
+5 -5
+6 -6
+7 -7
+8 -8
+9 -9
+10 -10
+11 -11
+12 -12
+13 -13
+14 -14
+15 -15
+16 -16
+17 -17
+18 -18
+19 -19
+20 -20
+21 -21
+22 -22
+23 -23
+24 -24
+25 -25
+26 -26
+27 -27
+28 -28
+29 -29
+30 -30
+31 -31
+32 -32
+33 -33
+34 -34
+35 -35
+36 -36
+37 -37
+38 -38
+39 -39
+40 -40
+41 -41
+42 -42
+43 -43
+44 -44
+45 -45
+46 -46
+47 -47
+48 -48
+49 -49
+50 -50
+51 -51
+52 -52
+53 -53
+54 -54
+55 -55
+56 -56
+57 -57
+58 -58
+59 -59
+60 -60
+61 -61
+62 -62
+63 -63
+64 -64
+65 -65
EOF
